SDVRP instances/p04/p04_1030_tsplib0_split0.vrp
NAME:.\SDVRP_split
BEST_KNOWN: 0
COMMENT: 0
DIMENSION: 614
CAPACITY: 200
EDGE_WEIGHT_FORMAT: FUNCTION
EDGE_WEIGHT_TYPE: EXACT_2D
NODE_COORD_SECTION
1 0.00000 0.00000
2 2 17
3 2 17
4 2 17
5 2 17
6 14 14
7 14 14
8 14 14
9 14 14
10 14 14
11 17 29
12 17 29
13 17 29
14 17 29
15 17 29
16 17 29
17 -15 -9
18 -15 -9
19 5 -5
20 5 -5
21 5 -5
22 5 -5
23 5 -5
24 -14 12
25 -14 12
26 -14 12
27 -14 12
28 -18 28
29 -18 28
30 -18 28
31 -18 28
32 -18 28
33 -18 28
34 -18 28
35 -4 27
36 -4 27
37 -4 27
38 17 -2
39 17 -2
40 17 -2
41 17 -2
42 17 -2
43 16 -14
44 16 -14
45 7 6
46 7 6
47 7 6
48 -4 -3
49 -4 -3
50 -4 -3
51 -4 -3
52 -4 -3
53 -30 -10
54 -30 -10
55 -30 -10
56 -30 -10
57 -30 -10
58 -30 -10
59 -23 7
60 1 -19
61 1 -19
62 1 -19
63 1 -19
64 1 -19
65 17 6
66 17 6
67 17 6
68 -8 -12
69 -8 -12
70 -8 -12
71 -18 -2
72 -22 -22
73 -22 -22
74 -22 -22
75 -22 -22
76 22 23
77 22 23
78 27 7
79 27 7
80 27 7
81 7 22
82 7 22
83 7 22
84 7 22
85 -19 22
86 -19 22
87 -19 22
88 -19 22
89 -27 17
90 -27 17
91 -27 17
92 -28 3
93 -28 3
94 -28 3
95 -8 33
96 -8 33
97 -8 33
98 -8 33
99 -8 33
100 -8 33
101 -5 13
102 -5 13
103 8 32
104 8 32
105 8 32
106 23 13
107 23 13
108 23 13
109 23 13
110 23 -8
111 23 -8
112 23 -8
113 2 34
114 2 34
115 2 34
116 2 34
117 3 11
118 3 11
119 3 11
120 11 -25
121 11 -25
122 11 -25
123 11 -25
124 26 -2
125 26 -2
126 26 -2
127 26 -2
128 26 -2
129 27 28
130 27 28
131 27 28
132 27 28
133 28 34
134 28 34
135 28 34
136 28 34
137 28 34
138 28 34
139 28 34
140 -3 -13
141 -3 -13
142 -3 -13
143 10 0
144 10 0
145 10 0
146 10 0
147 10 0
148 10 0
149 10 0
150 24 -20
151 24 -20
152 24 -20
153 24 -20
154 24 -20
155 24 -20
156 24 -20
157 -30 -29
158 -30 -29
159 -30 -29
160 -30 -29
161 -25 -18
162 -25 -18
163 -25 -18
164 -25 -18
165 -25 -18
166 -14 -25
167 -14 -25
168 -30 29
169 -30 29
170 -30 29
171 -30 29
172 -5 -20
173 -5 -20
174 -5 -20
175 -5 -20
176 4 -25
177 4 -25
178 4 -25
179 4 -25
180 4 -25
181 -3 4
182 -3 4
183 -3 4
184 -10 -3
185 -10 -3
186 -10 -3
187 -10 -3
188 -10 -3
189 -10 -3
190 -10 -3
191 -10 20
192 -10 20
193 -10 20
194 -10 20
195 -10 20
196 -10 20
197 13 -7
198 13 -7
199 13 -7
200 13 -7
201 21 2
202 21 2
203 21 2
204 6 14
205 6 14
206 6 14
207 6 14
208 0 -18
209 0 -18
210 0 -18
211 0 -18
212 20 10
213 20 10
214 20 10
215 20 -15
216 20 -15
217 20 -15
218 20 -15
219 20 -15
220 -20 -5
221 -20 -5
222 -20 -5
223 -20 -5
224 -20 -5
225 -20 -5
226 -10 -5
227 -10 -5
228 -10 -5
229 -10 -5
230 -10 -5
231 -10 -5
232 -15 15
233 -15 15
234 -15 15
235 -25 8
236 -25 8
237 -25 8
238 -25 8
239 -25 8
240 20 25
241 20 25
242 20 25
243 20 25
244 20 25
245 -5 25
246 -5 25
247 -5 25
248 -5 25
249 -15 30
250 -15 30
251 -15 30
252 -15 30
253 -15 30
254 15 0
255 15 0
256 -5 -10
257 -5 -10
258 -5 -10
259 -20 -25
260 -20 -25
261 -20 -25
262 -5 -30
263 -5 -30
264 -5 -30
265 -5 -30
266 -25 -15
267 -25 -15
268 -25 -15
269 -25 -15
270 -25 -15
271 -25 -15
272 -25 -15
273 -30 -5
274 -30 -5
275 -30 -5
276 -30 -5
277 -15 5
278 -15 5
279 -15 5
280 -20 25
281 -20 25
282 -20 25
283 -20 25
284 -20 25
285 -20 25
286 -20 25
287 10 30
288 10 30
289 10 30
290 10 30
291 10 -15
292 10 -15
293 10 -15
294 10 -15
295 10 -15
296 10 -15
297 10 -25
298 10 -25
299 10 -25
300 10 -25
301 10 -25
302 20 -30
303 20 -30
304 20 -30
305 20 -30
306 30 0
307 30 0
308 30 0
309 30 0
310 30 0
311 30 0
312 30 0
313 30 -15
314 30 -15
315 10 -5
316 10 -5
317 10 -5
318 10 -5
319 0 5
320 0 5
321 0 5
322 6 2
323 6 2
324 6 2
325 6 2
326 6 2
327 29 7
328 29 7
329 5 25
330 5 25
331 5 25
332 -4 17
333 -4 17
334 -4 17
335 -4 17
336 0 34
337 0 34
338 0 34
339 18 17
340 18 17
341 18 17
342 18 17
343 18 17
344 30 20
345 30 20
346 30 20
347 30 20
348 28 30
349 28 30
350 28 30
351 28 30
352 28 30
353 28 30
354 28 30
355 -33 25
356 -33 25
357 -33 25
358 -15 -15
359 -15 -15
360 -15 -15
361 -15 -15
362 -15 -15
363 -15 -15
364 -15 -15
365 -30 -30
366 -30 -30
367 -30 -30
368 25 -23
369 25 -23
370 25 -23
371 25 -23
372 5 -10
373 5 -10
374 5 -10
375 7 -28
376 7 -28
377 7 -28
378 -11 -23
379 -11 -23
380 -11 -23
381 -12 -32
382 -12 -32
383 -12 -32
384 -12 -32
385 -12 -32
386 -24 -21
387 -24 -21
388 -24 -21
389 -24 -21
390 -24 -21
391 -24 -21
392 -29 3
393 -29 3
394 -29 3
395 -29 3
396 -29 3
397 -33 13
398 -33 13
399 -33 13
400 -27 21
401 -27 21
402 -22 17
403 -22 17
404 -22 17
405 -22 17
406 -22 17
407 -22 17
408 -29 33
409 -29 33
410 12 12
411 12 12
412 12 12
413 14 23
414 14 23
415 14 23
416 14 23
417 -8 8
418 -8 8
419 -8 8
420 2 -4
421 2 -4
422 22 -6
423 22 -6
424 22 -6
425 22 -6
426 22 -6
427 22 -6
428 28 -12
429 28 -12
430 28 -12
431 28 -12
432 28 -12
433 28 -12
434 18 -23
435 18 -23
436 18 -23
437 18 -23
438 18 -23
439 -3 -23
440 -3 -23
441 -3 -23
442 1 -9
443 1 -9
444 -14 -11
445 -14 -11
446 -14 -11
447 -18 -1
448 -18 -1
449 -18 -1
450 -18 -1
451 -18 -1
452 -23 -11
453 -23 -11
454 -23 -11
455 -23 -11
456 -23 -11
457 -11 23
458 -11 23
459 -11 23
460 -11 23
461 -8 34
462 -20 42
463 -20 42
464 -20 42
465 27 42
466 27 42
467 27 42
468 27 42
469 27 42
470 14 38
471 14 38
472 14 38
473 14 38
474 14 38
475 32 -30
476 32 -30
477 32 -30
478 32 -30
479 21 4
480 21 4
481 21 4
482 21 4
483 2 12
484 2 12
485 2 21
486 2 21
487 2 21
488 2 21
489 2 21
490 2 21
491 22 33
492 22 33
493 22 33
494 22 33
495 12 -19
496 12 -19
497 12 -19
498 12 -19
499 12 -19
500 12 -19
501 12 -19
502 9 -18
503 9 -18
504 11 -22
505 11 -22
506 11 -22
507 11 -22
508 11 -22
509 14 -24
510 14 -24
511 14 -24
512 14 -24
513 14 7
514 14 7
515 18 8
516 18 8
517 18 8
518 18 8
519 18 8
520 18 8
521 26 17
522 26 17
523 26 17
524 26 17
525 26 17
526 26 17
527 26 17
528 22 13
529 22 13
530 22 13
531 22 13
532 22 13
533 21 2
534 21 2
535 21 2
536 21 2
537 21 2
538 21 2
539 20 19
540 20 19
541 20 19
542 20 19
543 -20 12
544 -20 12
545 -20 12
546 -21 2
547 -21 2
548 -21 2
549 -24 -4
550 -24 -4
551 -24 -4
552 -24 -4
553 -24 -4
554 -24 -4
555 -19 -13
556 -19 -13
557 -19 -13
558 -31 -17
559 -31 -17
560 -31 -17
561 -7 -17
562 -7 -17
563 -9 17
564 -9 17
565 -9 17
566 -9 0
567 -9 0
568 -9 0
569 -4 32
570 -4 32
571 -4 32
572 -4 32
573 -4 32
574 -4 32
575 -20 -16
576 -20 -16
577 -13 -13
578 -13 -13
579 -13 -13
580 -17 -11
581 -17 -11
582 -17 -11
583 -9 -8
584 -9 -8
585 -9 -8
586 -9 -8
587 -9 -8
588 -10 -11
589 -10 -11
590 -10 -11
591 -10 -11
592 -13 -8
593 -13 -8
594 -13 -8
595 -13 -8
596 -13 -8
597 -10 -14
598 -10 -14
599 -10 -14
600 -10 -14
601 -10 -14
602 -10 -14
603 -10 -14
604 -16 -14
605 -16 -14
606 -16 -14
607 -16 -14
608 -16 -14
609 -15 -9
610 -15 -9
611 -17 -17
612 -17 -17
613 -17 -17
614 -17 -17
DEMAND_SECTION
1 0
2 40
3 10
4 2
5 2
6 20
7 10
8 2
9 2
10 1
11 20
12 2
13 2
14 2
15 2
16 1
17 40
18 2
19 40
20 10
21 2
22 2
23 2
24 40
25 10
26 2
27 2
28 20
29 10
30 2
31 2
32 2
33 2
34 1
35 20
36 2
37 2
38 20
39 2
40 2
41 2
42 2
43 20
44 1
45 40
46 10
47 2
48 20
49 10
50 2
51 2
52 1
53 20
54 10
55 2
56 2
57 2
58 2
59 40
60 40
61 2
62 2
63 2
64 2
65 20
66 10
67 1
68 20
69 2
70 1
71 40
72 40
73 10
74 2
75 2
76 40
77 1
78 20
79 2
80 2
81 40
82 2
83 2
84 1
85 40
86 2
87 2
88 2
89 40
90 2
91 1
92 40
93 10
94 1
95 40
96 2
97 2
98 2
99 2
100 1
101 20
102 1
103 40
104 10
105 1
106 20
107 2
108 2
109 2
110 20
111 2
112 2
113 40
114 10
115 2
116 2
117 40
118 10
119 2
120 40
121 10
122 2
123 1
124 20
125 2
126 2
127 2
128 2
129 40
130 10
131 2
132 1
133 20
134 10
135 2
136 2
137 2
138 2
139 1
140 40
141 10
142 1
143 20
144 10
145 2
146 2
147 2
148 2
149 1
150 20
151 10
152 2
153 2
154 2
155 2
156 1
157 40
158 10
159 2
160 1
161 20
162 2
163 2
164 2
165 1
166 20
167 2
168 40
169 2
170 2
171 1
172 40
173 2
174 2
175 2
176 40
177 10
178 2
179 2
180 1
181 20
182 10
183 1
184 20
185 10
186 2
187 2
188 2
189 2
190 1
191 20
192 10
193 2
194 2
195 2
196 1
197 40
198 10
199 2
200 1
201 40
202 2
203 2
204 40
205 2
206 2
207 2
208 40
209 2
210 2
211 2
212 20
213 2
214 1
215 40
216 10
217 2
218 2
219 2
220 40
221 2
222 2
223 2
224 2
225 1
226 40
227 2
228 2
229 2
230 2
231 1
232 20
233 10
234 2
235 40
236 2
237 2
238 2
239 2
240 20
241 10
242 2
243 2
244 2
245 20
246 10
247 2
248 1
249 40
250 10
251 2
252 2
253 1
254 20
255 10
256 20
257 10
258 2
259 20
260 10
261 1
262 20
263 10
264 2
265 2
266 20
267 10
268 2
269 2
270 2
271 2
272 1
273 40
274 10
275 2
276 2
277 20
278 2
279 1
280 40
281 10
282 2
283 2
284 2
285 2
286 1
287 40
288 10
289 2
290 2
291 40
292 10
293 2
294 2
295 2
296 1
297 40
298 10
299 2
300 2
301 1
302 40
303 10
304 2
305 1
306 40
307 10
308 2
309 2
310 2
311 2
312 1
313 20
314 2
315 20
316 10
317 2
318 1
319 40
320 2
321 1
322 40
323 2
324 2
325 2
326 2
327 40
328 2
329 40
330 10
331 2
332 40
333 2
334 2
335 2
336 20
337 10
338 1
339 40
340 2
341 2
342 2
343 1
344 40
345 2
346 2
347 1
348 40
349 10
350 2
351 2
352 2
353 2
354 1
355 40
356 10
357 1
358 40
359 10
360 2
361 2
362 2
363 2
364 1
365 40
366 10
367 2
368 40
369 10
370 2
371 2
372 20
373 2
374 2
375 40
376 10
377 2
378 40
379 2
380 1
381 20
382 2
383 2
384 2
385 1
386 40
387 10
388 2
389 2
390 2
391 1
392 40
393 2
394 2
395 2
396 1
397 40
398 10
399 1
400 40
401 10
402 20
403 10
404 2
405 2
406 2
407 1
408 40
409 10
410 20
411 2
412 2
413 40
414 2
415 2
416 2
417 40
418 10
419 1
420 40
421 10
422 40
423 10
424 2
425 2
426 2
427 2
428 20
429 10
430 2
431 2
432 2
433 1
434 20
435 2
436 2
437 2
438 2
439 20
440 2
441 1
442 40
443 2
444 20
445 10
446 2
447 40
448 10
449 2
450 2
451 2
452 40
453 10
454 2
455 2
456 2
457 40
458 2
459 2
460 2
461 20
462 20
463 10
464 2
465 40
466 2
467 2
468 2
469 1
470 20
471 10
472 2
473 2
474 1
475 20
476 10
477 2
478 2
479 40
480 10
481 2
482 1
483 40
484 10
485 40
486 10
487 2
488 2
489 2
490 1
491 20
492 10
493 2
494 1
495 20
496 10
497 2
498 2
499 2
500 2
501 1
502 20
503 2
504 20
505 10
506 2
507 2
508 1
509 40
510 2
511 2
512 2
513 40
514 1
515 40
516 10
517 2
518 2
519 2
520 2
521 20
522 10
523 2
524 2
525 2
526 2
527 1
528 40
529 2
530 2
531 2
532 1
533 20
534 10
535 2
536 2
537 2
538 2
539 40
540 2
541 2
542 1
543 40
544 2
545 2
546 40
547 10
548 1
549 40
550 2
551 2
552 2
553 2
554 1
555 40
556 10
557 1
558 40
559 2
560 1
561 40
562 2
563 20
564 10
565 2
566 20
567 10
568 2
569 40
570 10
571 2
572 2
573 2
574 1
575 40
576 2
577 40
578 2
579 2
580 40
581 2
582 1
583 20
584 2
585 2
586 2
587 1
588 40
589 2
590 2
591 2
592 40
593 2
594 2
595 2
596 1
597 40
598 10
599 2
600 2
601 2
602 2
603 1
604 20
605 2
606 2
607 2
608 2
609 40
610 2
611 20
612 10
613 2
614 2
DEPOT_SECTION
1
-1
EOF