SDVRP instances/p04/p04_1030_tsplib0_split0.sol
613 -10 13 11 15 14 12 493 490 492 491 138 133 134 135 136 137 132 465 466 467 468 464 470 471 473 469 472 289 288 287 204 -18 20 22 21 19 314 316 315 373 371 441 420 419 -26 24 405 404 406 403 402 401 400 399 89 88 90 397 398 396 -45 44 46 409 411 203 205 206 116 118 318 -47 139 140 207 208 209 59 62 178 175 177 -48 49 50 585 587 590 598 599 596 602 601 600 560 69 67 68 255 256 -51 445 444 443 603 605 606 604 607 611 613 610 612 357 358 359 362 361 360 363 578 576 589 588 -58 236 235 238 237 234 395 393 392 391 394 92 91 93 567 -84 86 85 87 282 284 280 283 279 285 281 31 33 28 32 29 30 27 249 252 251 250 248 -101 100 562 563 564 190 195 192 194 191 193 456 458 459 457 34 35 36 244 245 334 332 333 -117 82 80 83 81 286 103 102 104 329 328 330 -126 124 125 127 123 311 307 306 310 308 305 309 326 327 79 78 77 514 519 518 -141 174 171 172 173 438 440 439 264 262 261 263 380 381 384 383 382 165 166 377 379 378 561 257 -146 254 40 425 424 426 422 423 109 110 111 428 431 427 429 432 430 312 313 215 216 217 218 214 43 42 198 317 -155 153 154 151 150 149 152 369 368 370 367 475 477 476 474 303 304 302 301 499 498 496 293 291 -181 180 182 418 416 417 23 25 232 233 231 543 542 544 -186 183 184 609 608 16 17 591 592 225 227 -187 185 189 188 223 219 221 224 220 222 54 57 53 56 55 52 275 273 272 274 551 550 552 553 548 549 -199 196 197 421 41 38 39 37 143 145 142 148 147 144 321 325 324 323 -229 228 230 226 454 451 455 452 453 575 574 556 554 555 581 579 580 -240 241 243 242 239 350 352 347 351 349 348 353 130 129 128 131 75 76 539 541 540 -247 246 95 96 99 97 98 94 573 569 570 571 572 568 335 337 336 115 113 112 114 3 319 320 -253 200 534 536 537 532 535 533 202 201 479 478 480 481 512 513 -269 268 265 266 162 161 163 164 160 387 386 385 390 389 388 74 71 73 72 577 586 583 584 582 -278 276 277 546 547 545 449 448 447 446 450 70 565 566 -295 294 290 292 494 497 500 495 437 436 435 434 433 511 508 510 509 507 506 503 501 502 -322 65 64 66 515 211 212 531 528 529 530 527 538 413 414 415 412 -331 485 489 488 486 487 484 2 1 4 482 483 -355 354 356 169 170 168 167 407 408 462 463 461 460 -372 504 505 120 119 121 122 300 299 297 296 298 375 376 374 176 179 60 63 61 210 442 -410 8 9 7 6 5 340 342 341 338 339 346 344 343 345 526 523 522 524 521 520 525 107 108 105 106 213 517 516 -594 595 593 267 270 271 557 558 559 159 158 157 156 366 365 364 259 258 260 597 0 





OBJ=
2079.786
BEST_KNOWN=
0.000